400
[80,83,84,85,86,90,91,92,94,101,103,104,105,112,114,119,122,128,129,132,137,138,139,142,143,144,145,147,149,151,152,153,154,158,168,170,171,172,177,180,181,183,188,189,190,193,197,199,211,212,215,217,218,224,226,228,229,231,232,234,235,236,237,239,240,246,249,251,253,254,255,256,261,263,264,270,271,272,276,277,278]
[1,1,1,2,1,2,1,1,1,3,1,1,1,1,1,1,1,1,1,1,1,1,1,1,1,1,1,1,1,1,1,1,1,1,1,1,1,1,1,1,1,1,1,1,1,1,3,1,1,1,1,1,1,1,1,1,1,1,1,3,3,2,5,1,1,2,2,1,1,1,1,1,2,1,1,1,1,1,2,1,1]
